1 3 100 247641.86
1 3 200 251190.60
1 3 300 253445.86
2 3 100 319011.19
2 3 200 337636.43
2 3 300 361411.07
3 3 100 338451.76
3 3 200 350911.15
3 3 300 354336.91
4 3 100 344880.30
4 3 200 362001.42
4 3 300 364415.30
5 3 100 330413.80
5 3 200 341786.46
5 3 300 363765.90
